
Gurobi 9.1.2 (win64) logging started Mon Dec  6 12:06:52 2021

Gurobi Optimizer version 9.1.2 build v9.1.2rc0 (win64)
Thread count: 8 physical cores, 8 logical processors, using up to 8 threads
Optimize a model with 1 rows, 19 columns and 18 nonzeros
Model fingerprint: 0x4028929c
Variable types: 1 continuous, 18 integer (18 binary)
Coefficient statistics:
  Matrix range     [1e+00, 1e+01]
  Objective range  [1e+00, 1e+00]
  Bounds range     [7e+00, 7e+00]
  RHS range        [1e+01, 1e+01]
Presolve time: 0.00s
Presolved: 1 rows, 19 columns, 18 nonzeros
Variable types: 1 continuous, 18 integer (18 binary)

Root simplex log...

Iteration    Objective       Primal Inf.    Dual Inf.      Time
       0   -7.1225454e+00   8.308778e-02   0.000000e+00     14s
       2   -7.1225454e+00   0.000000e+00   0.000000e+00     14s

Root relaxation: objective -7.122545e+00, 2 iterations, 0.00 seconds

    Nodes    |    Current Node    |     Objective Bounds      |     Work
 Expl Unexpl |  Obj  Depth IntInf | Incumbent    BestBd   Gap | It/Node Time

     0     0   -7.06194    0    2          -   -7.06194      -     -   14s
H    0     0                       0.3710880   -7.06194  2003%     -   14s
H    0     0                      -0.1104262   -7.06194  6295%     -   14s
     0     0   -1.65171    0    1   -0.11043   -1.65171  1396%     -   14s
H    0     0                      -0.2839967   -1.65171   482%     -   14s
     0     0   -1.30373    0    2   -0.28400   -1.30373   359%     -   14s

Cutting planes:
  Cover: 1
  MIR: 2
  Relax-and-lift: 1
  Lazy constraints: 4

Explored 1 nodes (13 simplex iterations) in 14.19 seconds
Thread count was 8 (of 8 available processors)

Solution count 3: -0.283997 -0.110426 0.371088 

Optimal solution found (tolerance 1.00e-04)
Best objective -2.839966563652e-01, best bound -2.839966563652e-01, gap 0.0000%

User-callback calls 100, time in user-callback 17.86 sec
